NAME          
ROWS
 N  OBJ
 G  c1
 G  c2
 G  c3
 G  c4
 G  c5
 G  c6
 G  c7
 G  c8
 G  c9
 G  c10
 G  c11
 G  c12
 G  c13
 G  c14
 G  c15
 G  c16
 G  c17
 G  c18
 G  c19
 G  c20
 G  c21
 G  c22
 G  c23
 G  c24
 G  c25
 G  c26
 G  c27
 G  c28
 G  c29
 G  c30
 G  c31
 G  c32
 G  c33
 G  c34
 G  c35
COLUMNS
    MARKER    'MARKER'                 'INTORG'
    x[1]      c3        1
    x[1]      c5        1
    x[1]      c6        1
    x[1]      c8        1
    x[1]      c9        1
    x[1]      c10       1
    x[1]      c26       1
    x[1]      OBJ       1
    x[2]      c20       1
    x[2]      c22       1
    x[2]      c23       1
    x[2]      c30       1
    x[2]      c32       1
    x[2]      OBJ       1
    x[3]      c4        1
    x[3]      c6        1
    x[3]      c12       1
    x[3]      c13       1
    x[3]      c15       1
    x[3]      c16       1
    x[3]      c31       1
    x[3]      OBJ       1
    x[4]      c2        1
    x[4]      c12       1
    x[4]      c13       1
    x[4]      c18       1
    x[4]      c30       1
    x[4]      c32       1
    x[4]      c33       1
    x[4]      c35       1
    x[4]      OBJ       1
    x[5]      c2        1
    x[5]      c3        1
    x[5]      c14       1
    x[5]      c18       1
    x[5]      c23       1
    x[5]      c24       1
    x[5]      c27       1
    x[5]      c29       1
    x[5]      OBJ       1
    x[6]      c2        1
    x[6]      c11       1
    x[6]      c25       1
    x[6]      c26       1
    x[6]      c34       1
    x[6]      OBJ       1
    x[7]      c1        1
    x[7]      c3        1
    x[7]      c4        1
    x[7]      c6        1
    x[7]      c8        1
    x[7]      c10       1
    x[7]      c14       1
    x[7]      c17       1
    x[7]      c26       1
    x[7]      c27       1
    x[7]      c29       1
    x[7]      OBJ       1
    x[8]      c1        1
    x[8]      c3        1
    x[8]      c9        1
    x[8]      c13       1
    x[8]      c17       1
    x[8]      c21       1
    x[8]      c23       1
    x[8]      c27       1
    x[8]      OBJ       1
    x[9]      c3        1
    x[9]      c6        1
    x[9]      c8        1
    x[9]      c9        1
    x[9]      c15       1
    x[9]      c17       1
    x[9]      c19       1
    x[9]      c23       1
    x[9]      c26       1
    x[9]      c33       1
    x[9]      OBJ       1
    x[10]     c1        1
    x[10]     c2        1
    x[10]     c6        1
    x[10]     c7        1
    x[10]     c21       1
    x[10]     c31       1
    x[10]     c33       1
    x[10]     OBJ       1
    x[11]     c3        1
    x[11]     c5        1
    x[11]     c7        1
    x[11]     c8        1
    x[11]     c15       1
    x[11]     c19       1
    x[11]     c26       1
    x[11]     c28       1
    x[11]     c29       1
    x[11]     OBJ       1
    x[12]     c10       1
    x[12]     c12       1
    x[12]     c14       1
    x[12]     c16       1
    x[12]     c20       1
    x[12]     c27       1
    x[12]     c34       1
    x[12]     OBJ       1
    x[13]     c3        1
    x[13]     c5        1
    x[13]     c19       1
    x[13]     c23       1
    x[13]     c28       1
    x[13]     c35       1
    x[13]     OBJ       1
    x[14]     c5        1
    x[14]     c7        1
    x[14]     c17       1
    x[14]     OBJ       1
    x[15]     c1        1
    x[15]     c10       1
    x[15]     c14       1
    x[15]     c27       1
    x[15]     c30       1
    x[15]     c33       1
    x[15]     OBJ       1
RHS
    rhs       c1        1
    rhs       c2        1
    rhs       c3        1
    rhs       c4        1
    rhs       c5        1
    rhs       c6        1
    rhs       c7        1
    rhs       c8        1
    rhs       c9        1
    rhs       c10       1
    rhs       c11       1
    rhs       c12       1
    rhs       c13       1
    rhs       c14       1
    rhs       c15       1
    rhs       c16       1
    rhs       c17       1
    rhs       c18       1
    rhs       c19       1
    rhs       c20       1
    rhs       c21       1
    rhs       c22       1
    rhs       c23       1
    rhs       c24       1
    rhs       c25       1
    rhs       c26       1
    rhs       c27       1
    rhs       c28       1
    rhs       c29       1
    rhs       c30       1
    rhs       c31       1
    rhs       c32       1
    rhs       c33       1
    rhs       c34       1
    rhs       c35       1
RANGES
BOUNDS
 BV bounds    x[1]
 BV bounds    x[2]
 BV bounds    x[3]
 BV bounds    x[4]
 BV bounds    x[5]
 BV bounds    x[6]
 BV bounds    x[7]
 BV bounds    x[8]
 BV bounds    x[9]
 BV bounds    x[10]
 BV bounds    x[11]
 BV bounds    x[12]
 BV bounds    x[13]
 BV bounds    x[14]
 BV bounds    x[15]
ENDATA
